90
2397
7
11
87
24
47
65
39
30
0 2
0 3
0 4
0 6
0 8
0 9
0 11
0 12
0 13
0 14
0 15
0 16
0 18
0 20
0 21
0 23
0 24
0 26
0 27
0 28
0 29
0 30
0 32
0 34
0 36
0 38
0 39
0 40
0 42
0 44
0 47
0 50
0 51
0 52
0 55
0 57
0 58
0 60
0 61
0 64
0 67
0 68
0 70
0 71
0 75
0 79
0 81
0 83
0 85
0 87
0 88
0 89
1 2
1 5
1 8
1 9
1 10
1 11
1 14
1 17
1 18
1 19
1 20
1 21
1 22
1 27
1 28
1 29
1 30
1 31
1 33
1 34
1 35
1 36
1 38
1 44
1 46
1 48
1 52
1 53
1 55
1 56
1 59
1 60
1 61
1 62
1 63
1 64
1 65
1 66
1 70
1 71
1 74
1 76
1 78
1 79
1 81
1 84
1 85
1 87
1 89
2 3
2 4
2 5
2 6
2 8
2 9
2 12
2 13
2 14
2 15
2 16
2 17
2 19
2 20
2 21
2 26
2 28
2 31
2 32
2 33
2 34
2 37
2 39
2 40
2 41
2 42
2 43
2 45
2 46
2 47
2 48
2 50
2 52
2 54
2 56
2 58
2 60
2 61
2 63
2 64
2 65
2 67
2 69
2 73
2 74
2 75
2 76
2 78
2 83
2 84
2 87
3 6
3 7
3 10
3 14
3 15
3 21
3 22
3 24
3 25
3 26
3 27
3 28
3 30
3 31
3 32
3 33
3 34
3 35
3 41
3 42
3 43
3 44
3 48
3 51
3 52
3 53
3 56
3 57
3 60
3 61
3 62
3 63
3 66
3 69
3 70
3 71
3 72
3 73
3 75
3 77
3 80
3 82
3 84
3 85
3 86
3 88
4 5
4 6
4 7
4 8
4 10
4 11
4 12
4 13
4 15
4 17
4 20
4 21
4 23
4 24
4 25
4 28
4 30
4 32
4 33
4 34
4 35
4 36
4 39
4 40
4 42
4 43
4 47
4 48
4 49
4 52
4 53
4 54
4 55
4 56
4 57
4 58
4 59
4 61
4 63
4 64
4 65
4 67
4 68
4 69
4 71
4 72
4 74
4 75
4 76
4 77
4 79
4 82
4 84
4 85
4 86
4 87
4 88
5 6
5 8
5 12
5 15
5 17
5 18
5 20
5 21
5 22
5 24
5 26
5 27
5 28
5 30
5 33
5 34
5 37
5 38
5 40
5 42
5 45
5 46
5 51
5 53
5 54
5 56
5 57
5 59
5 60
5 62
5 63
5 64
5 65
5 66
5 67
5 69
5 70
5 71
5 72
5 73
5 75
5 76
5 78
5 79
5 81
5 82
5 83
5 84
5 86
5 89
6 7
6 8
6 9
6 10
6 13
6 15
6 17
6 19
6 20
6 22
6 24
6 25
6 26
6 27
6 28
6 29
6 32
6 33
6 35
6 38
6 39
6 40
6 41
6 43
6 44
6 46
6 48
6 49
6 51
6 52
6 53
6 54
6 55
6 57
6 58
6 59
6 61
6 62
6 63
6 64
6 65
6 69
6 70
6 73
6 74
6 75
6 76
6 77
6 80
6 81
6 84
6 85
6 86
6 89
7 8
7 11
7 14
7 20
7 22
7 23
7 28
7 29
7 30
7 31
7 34
7 37
7 38
7 39
7 41
7 42
7 43
7 48
7 49
7 51
7 55
7 56
7 59
7 62
7 63
7 65
7 66
7 68
7 69
7 70
7 71
7 74
7 75
7 77
7 78
7 80
7 82
7 84
7 86
7 87
7 88
7 89
8 9
8 10
8 11
8 12
8 13
8 14
8 15
8 17
8 19
8 20
8 21
8 22
8 23
8 24
8 29
8 30
8 32
8 36
8 37
8 38
8 39
8 40
8 43
8 44
8 45
8 46
8 47
8 48
8 49
8 50
8 54
8 55
8 57
8 58
8 60
8 62
8 63
8 70
8 71
8 72
8 73
8 74
8 76
8 78
8 80
8 84
8 87
9 11
9 13
9 16
9 19
9 20
9 22
9 23
9 24
9 25
9 27
9 28
9 29
9 35
9 38
9 40
9 41
9 42
9 43
9 46
9 47
9 48
9 49
9 52
9 54
9 55
9 56
9 57
9 61
9 62
9 64
9 65
9 67
9 68
9 72
9 73
9 74
9 75
9 78
9 79
9 85
9 86
9 87
9 88
10 11
10 16
10 20
10 23
10 24
10 27
10 28
10 29
10 30
10 32
10 33
10 34
10 35
10 36
10 38
10 39
10 42
10 43
10 45
10 46
10 47
10 50
10 51
10 57
10 58
10 59
10 60
10 62
10 64
10 66
10 67
10 70
10 73
10 78
10 79
10 80
10 86
10 87
11 13
11 14
11 15
11 16
11 18
11 22
11 24
11 27
11 28
11 29
11 31
11 32
11 33
11 34
11 35
11 37
11 38
11 39
11 42
11 43
11 44
11 45
11 48
11 55
11 56
11 58
11 59
11 64
11 65
11 68
11 70
11 72
11 74
11 76
11 77
11 83
11 84
11 85
11 87
11 88
12 13
12 16
12 17
12 19
12 20
12 21
12 22
12 24
12 25
12 26
12 27
12 28
12 30
12 31
12 32
12 33
12 35
12 37
12 38
12 40
12 41
12 42
12 45
12 46
12 47
12 50
12 53
12 54
12 55
12 58
12 60
12 61
12 62
12 63
12 64
12 67
12 68
12 69
12 70
12 72
12 73
12 75
12 76
12 77
12 78
12 79
12 80
12 81
12 82
12 83
12 84
12 85
12 86
12 88
12 89
13 14
13 15
13 16
13 20
13 21
13 22
13 23
13 24
13 26
13 27
13 28
13 32
13 37
13 39
13 40
13 42
13 43
13 46
13 47
13 49
13 50
13 51
13 53
13 54
13 55
13 57
13 58
13 59
13 60
13 61
13 64
13 66
13 68
13 71
13 73
13 78
13 79
13 80
13 88
13 89
14 15
14 16
14 17
14 19
14 20
14 21
14 23
14 24
14 25
14 26
14 27
14 28
14 29
14 31
14 32
14 34
14 37
14 38
14 39
14 40
14 41
14 42
14 45
14 48
14 49
14 50
14 51
14 52
14 53
14 55
14 56
14 57
14 58
14 61
14 62
14 63
14 65
14 67
14 68
14 70
14 71
14 72
14 75
14 77
14 78
14 79
14 80
14 83
14 84
14 85
14 87
14 88
14 89
15 17
15 18
15 21
15 22
15 23
15 24
15 27
15 28
15 30
15 31
15 32
15 33
15 35
15 36
15 41
15 42
15 43
15 44
15 47
15 49
15 50
15 51
15 56
15 57
15 58
15 63
15 65
15 66
15 67
15 68
15 71
15 72
15 74
15 77
15 78
15 80
15 81
15 82
15 84
15 86
15 87
15 88
15 89
16 17
16 18
16 20
16 21
16 22
16 23
16 24
16 25
16 27
16 29
16 30
16 31
16 33
16 34
16 38
16 41
16 42
16 43
16 45
16 51
16 56
16 58
16 59
16 60
16 61
16 62
16 63
16 65
16 66
16 70
16 75
16 76
16 77
16 78
16 79
16 80
16 81
16 83
16 84
16 85
16 87
17 19
17 22
17 24
17 25
17 27
17 30
17 33
17 34
17 37
17 39
17 41
17 42
17 43
17 44
17 46
17 47
17 48
17 51
17 54
17 56
17 60
17 61
17 62
17 63
17 64
17 65
17 66
17 69
17 72
17 73
17 74
17 78
17 79
17 81
17 82
17 83
17 84
17 85
17 86
17 88
17 89
18 19
18 20
18 21
18 22
18 23
18 24
18 26
18 27
18 30
18 31
18 32
18 33
18 34
18 35
18 36
18 38
18 40
18 43
18 45
18 47
18 48
18 50
18 51
18 54
18 56
18 57
18 58
18 59
18 60
18 61
18 64
18 65
18 66
18 67
18 68
18 70
18 73
18 74
18 75
18 76
18 78
18 79
18 80
18 82
18 83
18 85
18 86
18 87
18 88
18 89
19 20
19 21
19 24
19 26
19 27
19 28
19 31
19 33
19 34
19 36
19 38
19 39
19 40
19 42
19 44
19 45
19 49
19 50
19 53
19 54
19 55
19 56
19 59
19 60
19 62
19 63
19 65
19 66
19 67
19 74
19 75
19 77
19 80
19 81
19 83
19 84
19 85
19 86
19 88
20 21
20 26
20 27
20 30
20 31
20 33
20 34
20 35
20 36
20 37
20 38
20 39
20 40
20 42
20 45
20 46
20 47
20 48
20 49
20 51
20 52
20 54
20 55
20 59
20 62
20 64
20 65
20 66
20 67
20 68
20 69
20 70
20 73
20 74
20 75
20 77
20 80
20 81
20 82
20 83
20 88
21 22
21 23
21 24
21 25
21 27
21 29
21 30
21 31
21 34
21 35
21 37
21 38
21 39
21 40
21 41
21 46
21 47
21 49
21 50
21 53
21 55
21 59
21 61
21 65
21 66
21 67
21 70
21 71
21 74
21 75
21 76
21 77
21 80
21 82
21 83
21 86
21 87
22 23
22 25
22 28
22 29
22 33
22 34
22 35
22 36
22 37
22 38
22 39
22 40
22 41
22 43
22 44
22 45
22 46
22 47
22 48
22 49
22 50
22 51
22 52
22 53
22 54
22 55
22 56
22 57
22 58
22 59
22 60
22 61
22 63
22 64
22 65
22 67
22 70
22 71
22 73
22 74
22 78
22 79
22 80
22 81
22 83
22 84
22 86
22 88
23 24
23 25
23 27
23 29
23 32
23 35
23 36
23 37
23 39
23 41
23 42
23 44
23 46
23 48
23 50
23 51
23 53
23 55
23 57
23 58
23 59
23 60
23 61
23 62
23 63
23 64
23 66
23 68
23 70
23 71
23 73
23 74
23 75
23 76
23 77
23 80
23 81
23 82
23 84
23 86
23 87
23 88
24 25
24 26
24 27
24 28
24 30
24 32
24 34
24 36
24 37
24 38
24 39
24 40
24 42
24 45
24 46
24 47
24 49
24 51
24 52
24 54
24 55
24 56
24 60
24 62
24 63
24 64
24 66
24 68
24 70
24 72
24 74
24 75
24 76
24 77
24 78
24 79
24 80
24 83
24 84
24 85
24 88
25 26
25 28
25 29
25 30
25 31
25 33
25 34
25 36
25 37
25 39
25 42
25 43
25 45
25 46
25 47
25 48
25 49
25 50
25 52
25 53
25 58
25 61
25 62
25 63
25 64
25 65
25 66
25 67
25 69
25 71
25 72
25 73
25 74
25 76
25 78
25 79
25 80
25 81
25 84
25 86
25 87
25 89
26 27
26 28
26 30
26 31
26 32
26 33
26 34
26 35
26 38
26 39
26 40
26 43
26 44
26 45
26 46
26 51
26 52
26 53
26 54
26 55
26 56
26 58
26 59
26 60
26 62
26 63
26 64
26 65
26 66
26 67
26 68
26 70
26 71
26 72
26 74
26 75
26 77
26 78
26 80
26 82
26 84
26 85
26 87
26 88
27 29
27 30
27 31
27 34
27 35
27 36
27 37
27 38
27 40
27 41
27 43
27 46
27 49
27 51
27 53
27 54
27 55
27 57
27 59
27 60
27 61
27 63
27 64
27 66
27 67
27 68
27 70
27 71
27 73
27 76
27 77
27 78
27 79
27 81
27 82
27 83
27 84
27 85
27 86
27 88
27 89
28 30
28 38
28 40
28 45
28 48
28 49
28 51
28 52
28 53
28 54
28 56
28 57
28 59
28 61
28 62
28 63
28 66
28 69
28 71
28 73
28 75
28 78
28 79
28 83
28 84
28 85
28 86
28 89
29 31
29 33
29 37
29 40
29 43
29 44
29 45
29 47
29 49
29 50
29 51
29 53
29 56
29 57
29 58
29 60
29 62
29 63
29 64
29 65
29 66
29 67
29 68
29 69
29 71
29 73
29 76
29 79
29 80
29 82
29 83
29 85
29 86
29 87
29 89
30 32
30 35
30 37
30 38
30 39
30 41
30 42
30 43
30 44
30 46
30 49
30 50
30 51
30 52
30 53
30 54
30 56
30 57
30 58
30 61
30 64
30 66
30 67
30 69
30 71
30 74
30 75
30 76
30 77
30 82
30 85
30 86
30 87
31 32
31 33
31 35
31 36
31 37
31 40
31 42
31 49
31 50
31 51
31 53
31 56
31 58
31 59
31 61
31 62
31 65
31 67
31 68
31 69
31 72
31 73
31 74
31 76
31 77
31 78
31 80
31 81
31 83
31 84
31 85
31 86
31 87
31 88
31 89
32 34
32 35
32 36
32 37
32 38
32 39
32 40
32 41
32 43
32 45
32 46
32 47
32 48
32 53
32 58
32 60
32 62
32 63
32 64
32 66
32 67
32 70
32 73
32 75
32 76
32 77
32 78
32 80
32 81
32 83
32 84
32 85
32 87
32 88
33 34
33 36
33 37
33 39
33 42
33 43
33 44
33 45
33 46
33 47
33 48
33 49
33 51
33 52
33 54
33 55
33 57
33 58
33 59
33 60
33 61
33 62
33 63
33 64
33 65
33 66
33 67
33 68
33 69
33 70
33 71
33 73
33 74
33 75
33 76
33 77
33 79
33 81
33 83
33 85
33 86
33 87
33 88
34 36
34 38
34 39
34 42
34 43
34 44
34 45
34 46
34 47
34 51
34 52
34 53
34 55
34 56
34 57
34 58
34 60
34 61
34 62
34 64
34 65
34 67
34 69
34 70
34 72
34 73
34 74
34 75
34 76
34 77
34 79
34 82
34 83
34 84
34 85
34 86
34 87
35 36
35 37
35 38
35 40
35 42
35 44
35 46
35 51
35 54
35 55
35 56
35 59
35 62
35 67
35 68
35 69
35 70
35 74
35 75
35 76
35 77
35 78
35 79
35 80
35 81
35 82
35 83
35 84
35 85
35 86
35 87
35 88
36 37
36 39
36 40
36 41
36 45
36 46
36 48
36 49
36 51
36 52
36 54
36 56
36 59
36 60
36 61
36 62
36 66
36 68
36 69
36 71
36 73
36 74
36 75
36 76
36 77
36 78
36 81
36 85
36 86
36 87
36 88
36 89
37 38
37 39
37 41
37 42
37 43
37 45
37 46
37 47
37 48
37 49
37 52
37 54
37 55
37 56
37 58
37 59
37 61
37 64
37 65
37 66
37 68
37 69
37 72
37 73
37 74
37 76
37 77
37 79
37 80
37 81
37 82
37 83
37 84
37 87
37 88
37 89
38 39
38 40
38 42
38 43
38 45
38 46
38 47
38 49
38 50
38 51
38 52
38 59
38 60
38 62
38 67
38 68
38 69
38 71
38 75
38 76
38 77
38 78
38 82
38 83
38 87
38 89
39 40
39 41
39 42
39 43
39 46
39 47
39 48
39 50
39 55
39 56
39 64
39 65
39 66
39 69
39 70
39 71
39 72
39 73
39 78
39 79
39 80
39 83
39 85
39 87
39 89
40 42
40 43
40 48
40 49
40 50
40 53
40 54
40 57
40 58
40 59
40 61
40 62
40 63
40 64
40 66
40 67
40 68
40 69
40 70
40 72
40 73
40 77
40 78
40 79
40 80
40 82
40 83
40 84
40 85
40 88
41 42
41 43
41 46
41 47
41 48
41 51
41 52
41 53
41 54
41 56
41 59
41 63
41 66
41 67
41 68
41 70
41 71
41 75
41 76
41 77
41 78
41 79
41 80
41 81
41 82
41 86
41 87
41 88
42 43
42 46
42 47
42 48
42 49
42 52
42 55
42 57
42 58
42 59
42 60
42 61
42 62
42 64
42 68
42 69
42 70
42 74
42 77
42 78
42 80
42 81
42 82
42 83
42 84
42 86
42 87
42 88
42 89
43 44
43 48
43 49
43 52
43 54
43 55
43 57
43 60
43 61
43 63
43 64
43 66
43 67
43 68
43 70
43 72
43 73
43 74
43 75
43 79
43 81
43 82
43 85
43 88
43 89
44 45
44 46
44 47
44 48
44 49
44 50
44 52
44 54
44 56
44 58
44 61
44 62
44 65
44 67
44 74
44 77
44 80
44 82
44 86
44 87
44 88
44 89
45 46
45 47
45 48
45 49
45 50
45 51
45 52
45 53
45 55
45 56
45 58
45 59
45 62
45 63
45 67
45 68
45 70
45 71
45 73
45 74
45 79
45 80
45 82
45 88
46 48
46 50
46 51
46 52
46 53
46 55
46 57
46 58
46 59
46 61
46 64
46 65
46 66
46 68
46 70
46 71
46 72
46 74
46 76
46 79
46 81
46 83
46 84
46 86
46 87
46 88
46 89
47 48
47 49
47 50
47 53
47 56
47 58
47 59
47 60
47 61
47 63
47 65
47 67
47 68
47 69
47 70
47 71
47 72
47 74
47 75
47 78
47 80
47 81
47 82
47 84
48 49
48 50
48 53
48 54
48 55
48 56
48 57
48 58
48 59
48 61
48 62
48 63
48 67
48 68
48 69
48 72
48 74
48 75
48 79
48 81
48 83
48 84
48 85
48 86
48 87
48 88
49 50
49 51
49 52
49 54
49 55
49 56
49 58
49 59
49 61
49 62
49 63
49 64
49 65
49 66
49 67
49 71
49 74
49 75
49 76
49 77
49 78
49 79
49 81
49 83
49 85
49 89
50 51
50 52
50 53
50 54
50 56
50 57
50 60
50 62
50 65
50 67
50 69
50 70
50 71
50 76
50 77
50 79
50 80
50 81
50 82
50 83
50 86
50 87
50 88
51 52
51 53
51 55
51 56
51 57
51 60
51 64
51 65
51 66
51 67
51 69
51 70
51 71
51 72
51 75
51 76
51 80
51 84
51 85
51 86
51 88
52 53
52 54
52 55
52 56
52 57
52 60
52 61
52 62
52 63
52 66
52 68
52 69
52 72
52 74
52 75
52 76
52 77
52 78
52 81
52 84
52 85
53 54
53 55
53 56
53 58
53 60
53 62
53 63
53 65
53 68
53 69
53 72
53 73
53 74
53 75
53 77
53 78
53 82
53 83
53 85
53 87
53 88
53 89
54 55
54 56
54 57
54 58
54 59
54 60
54 63
54 65
54 66
54 67
54 68
54 69
54 70
54 72
54 73
54 74
54 75
54 79
54 81
54 82
54 85
54 86
54 89
55 56
55 57
55 58
55 59
55 62
55 63
55 64
55 65
55 67
55 68
55 70
55 72
55 76
55 78
55 79
55 80
55 82
55 84
55 86
55 87
55 89
56 58
56 59
56 60
56 61
56 63
56 66
56 68
56 69
56 71
56 72
56 73
56 74
56 75
56 77
56 83
56 84
56 85
56 86
56 88
56 89
57 58
57 60
57 61
57 63
57 64
57 66
57 67
57 68
57 69
57 70
57 72
57 74
57 75
57 76
57 77
57 78
57 79
57 81
57 83
57 86
57 87
58 59
58 61
58 63
58 64
58 65
58 67
58 68
58 71
58 72
58 74
58 75
58 76
58 77
58 78
58 79
58 80
58 83
58 84
58 85
58 86
58 87
59 60
59 61
59 63
59 64
59 67
59 68
59 69
59 70
59 75
59 77
59 79
59 80
59 82
59 83
59 84
59 85
59 86
59 88
60 61
60 62
60 64
60 65
60 67
60 68
60 70
60 71
60 74
60 75
60 76
60 78
60 79
60 80
60 81
60 83
60 84
60 86
60 87
60 88
60 89
61 63
61 64
61 66
61 67
61 69
61 70
61 71
61 72
61 76
61 77
61 78
61 80
61 81
61 82
61 84
61 86
61 87
62 63
62 68
62 69
62 72
62 73
62 74
62 78
62 79
62 82
62 84
62 85
62 86
62 87
62 89
63 64
63 65
63 66
63 67
63 68
63 69
63 71
63 73
63 74
63 75
63 76
63 77
63 78
63 82
63 83
63 86
63 89
64 65
64 66
64 68
64 70
64 72
64 73
64 74
64 78
64 79
64 85
64 87
64 88
65 68
65 69
65 70
65 73
65 76
65 78
65 79
65 81
65 82
65 84
65 85
65 88
66 68
66 71
66 72
66 74
66 76
66 83
66 84
66 85
66 86
67 68
67 70
67 71
67 73
67 74
67 77
67 79
67 81
67 82
67 83
67 84
67 88
67 89
68 69
68 70
68 72
68 73
68 76
68 79
68 80
68 86
68 87
68 88
69 70
69 71
69 76
69 77
69 78
69 79
69 80
69 81
69 82
69 84
69 85
69 86
69 87
69 88
70 71
70 72
70 73
70 74
70 76
70 77
70 80
70 81
70 82
70 85
70 87
70 88
70 89
71 73
71 74
71 76
71 77
71 78
71 79
71 80
71 83
71 84
71 86
71 87
71 88
71 89
72 73
72 74
72 76
72 78
72 81
72 82
72 83
72 84
72 85
72 87
72 88
72 89
73 74
73 75
73 76
73 78
73 79
73 80
73 81
73 84
73 85
73 89
74 75
74 76
74 77
74 81
74 82
74 87
74 89
75 76
75 77
75 78
75 79
75 80
75 81
75 82
75 84
75 85
75 86
75 87
75 88
75 89
76 77
76 78
76 80
76 82
76 83
76 84
76 89
77 80
77 81
77 82
77 83
77 85
77 88
77 89
78 79
78 80
78 81
78 83
78 85
78 86
78 87
78 88
78 89
79 80
79 81
79 82
79 83
79 84
79 85
79 86
79 89
80 81
80 86
80 87
80 89
81 84
81 88
81 89
82 83
82 85
82 89
83 84
83 86
83 87
84 86
84 88
84 89
85 86
85 87
85 88
86 87
86 88
87 88
87 89
88 89
3 9 61 81 34 88 19 43 71 65 27 63 82
5 58 80 21 4 72 45 59 77 41 68 84 14
23 83 73 18 57 22 39 51 55 6 38 76 78
17 54 8 7 44 66 32 52 12 87 53 13 20
79 42 30 46 33 85 50 28 62 11 16 48 74
15 64 56 24 49 69 75 40 35 36 29 25 26
70 37 2 86 31 0 47 89 60 10 67 1
